



















































































6 4 5 
42 62 
49 76 67 
55 36 21 
0 74 
20 2 
28 65 
29 39 17 
33 48 32 
31 66 60 
41 22 34 
7 35 
71 40 53 
73 52 
57 13 19 
70 23 69 
24 9 
44 64 
45 56 26 
3 38 
43 37 
50 14 47 
72 30 58 
51 11 75 
25 68 
15 18 
61 12 
10 46 54 
27 63 16 
59 
1 8 
